(set-logic ALL)
(declare-const first_num_VAR Int)
(declare-const second_num_VAR Int)
(assert (not (>= first_num_VAR second_num_VAR)))
(check-sat)
(get-value (first_num_VAR))
(get-value (second_num_VAR))
